n=588;
k_min=13;
k_max=13;
M=[| 75, 73, 80, 71, 71, 72, 80, 82, 74, 81, 80, 81, 73
 | 75, 73, 81, 70, 71, 72, 80, 83, 74, 81, 80, 82, 73
 | 75, 73, 81, 71, 71, 72, 80, 83, 74, 81, 80, 82, 73
 | 75, 73, 81, 71, 71, 72, 80, 83, 74, 81, 80, 82, 73
 | 75, 73, 82, 71, 71, 72, 79, 83, 74, 80, 80, 82, 73
 | 75, 73, 82, 71, 71, 72, 79, 82, 74, 80, 80, 82, 73
 | 75, 73, 82, 71, 71, 72, 79, 83, 74, 80, 79, 82, 73
 | 75, 73, 83, 71, 71, 72, 79, 82, 74, 80, 79, 82, 73
 | 75, 73, 83, 71, 71, 72, 79, 82, 74, 80, 79, 82, 73
 | 75, 74, 83, 71, 72, 72, 79, 81, 74, 80, 79, 82, 73
 | 75, 74, 83, 71, 72, 72, 79, 81, 74, 80, 79, 81, 73
 | 75, 74, 82, 71, 72, 72, 79, 80, 74, 80, 79, 81, 73
 | 75, 74, 82, 71, 72, 73, 79, 80, 75, 80, 79, 81, 73
 | 75, 74, 83, 71, 72, 73, 79, 80, 75, 80, 79, 81, 73
 | 75, 75, 82, 71, 72, 73, 79, 79, 75, 80, 79, 81, 74
 | 75, 75, 82, 71, 72, 73, 79, 79, 75, 80, 79, 81, 74
 | 75, 75, 82, 71, 72, 73, 79, 78, 75, 81, 79, 80, 74
 | 75, 74, 82, 70, 72, 72, 79, 78, 75, 81, 80, 80, 74
 | 75, 73, 80, 71, 71, 72, 80, 83, 74, 81, 80, 81, 73
 | 75, 73, 80, 71, 71, 72, 80, 83, 74, 81, 80, 81, 73
 | 75, 73, 81, 71, 71, 72, 80, 83, 74, 81, 80, 81, 73
 | 75, 73, 81, 71, 71, 72, 80, 83, 74, 81, 80, 82, 73
 | 75, 73, 81, 71, 71, 72, 80, 83, 74, 81, 80, 81, 73
 | 75, 73, 82, 71, 71, 72, 79, 83, 74, 80, 80, 82, 73
 | 75, 73, 82, 71, 71, 72, 79, 83, 74, 80, 80, 81, 73
 | 75, 73, 82, 71, 71, 72, 79, 82, 74, 80, 80, 82, 73
 | 75, 73, 82, 71, 71, 72, 79, 83, 74, 80, 79, 81, 73
 | 75, 73, 83, 71, 71, 72, 79, 82, 74, 80, 79, 81, 73
 | 75, 73, 83, 71, 71, 72, 79, 82, 74, 80, 79, 81, 73
 | 75, 73, 83, 71, 71, 72, 79, 82, 74, 80, 79, 82, 73
 | 75, 74, 83, 71, 72, 72, 79, 82, 74, 80, 79, 81, 73
 | 75, 74, 83, 71, 72, 72, 79, 81, 74, 80, 79, 81, 73
 | 75, 74, 83, 71, 72, 72, 79, 81, 74, 80, 79, 81, 73
 | 75, 74, 83, 71, 72, 72, 79, 81, 74, 80, 79, 81, 73
 | 75, 74, 83, 71, 72, 73, 78, 80, 74, 80, 79, 81, 73
 | 75, 75, 83, 71, 72, 73, 78, 80, 75, 80, 79, 81, 73
 | 75, 74, 82, 71, 72, 72, 79, 80, 74, 80, 79, 81, 73
 | 75, 75, 83, 71, 72, 73, 78, 79, 75, 80, 79, 81, 73
 | 75, 75, 82, 71, 72, 73, 78, 79, 75, 80, 79, 80, 74
 | 75, 75, 82, 71, 72, 73, 79, 79, 75, 80, 79, 80, 74
 | 75, 75, 82, 71, 72, 73, 79, 78, 75, 80, 79, 80, 74
 | 75, 75, 82, 71, 72, 73, 79, 78, 75, 80, 79, 80, 74
 | 75, 75, 83, 71, 72, 73, 79, 78, 75, 81, 79, 80, 74
 | 75, 73, 80, 71, 71, 72, 80, 83, 74, 81, 80, 81, 73
 | 75, 73, 81, 71, 71, 72, 80, 83, 74, 80, 80, 81, 73
 | 75, 73, 80, 71, 71, 72, 80, 83, 74, 80, 80, 81, 73
 | 75, 73, 81, 71, 71, 72, 80, 83, 74, 81, 80, 81, 73
 | 75, 73, 81, 71, 71, 72, 80, 83, 74, 80, 80, 81, 73
 | 75, 73, 81, 71, 71, 72, 79, 83, 74, 80, 80, 81, 73
 | 75, 73, 81, 71, 71, 72, 80, 83, 74, 80, 80, 81, 73
 | 75, 73, 82, 71, 71, 72, 79, 82, 74, 80, 80, 81, 73
 | 75, 73, 82, 71, 71, 72, 79, 83, 74, 80, 79, 81, 73
 | 75, 73, 82, 71, 71, 72, 79, 83, 74, 80, 79, 81, 73
 | 75, 73, 82, 71, 71, 72, 79, 83, 74, 80, 79, 81, 73
 | 75, 73, 83, 71, 71, 72, 79, 82, 74, 80, 79, 81, 73
 | 75, 73, 83, 71, 72, 72, 79, 82, 74, 80, 79, 81, 73
 | 75, 73, 83, 71, 72, 72, 79, 82, 74, 80, 79, 81, 73
 | 75, 74, 83, 71, 72, 72, 79, 82, 74, 80, 79, 81, 73
 | 75, 74, 83, 71, 72, 72, 79, 82, 74, 80, 79, 81, 73
 | 75, 74, 83, 71, 72, 72, 79, 81, 74, 80, 79, 81, 73
 | 75, 74, 82, 71, 72, 72, 78, 81, 74, 80, 79, 81, 73
 | 75, 74, 83, 71, 72, 73, 78, 81, 74, 80, 79, 81, 73
 | 75, 74, 83, 71, 72, 73, 78, 80, 74, 80, 79, 81, 73
 | 75, 74, 83, 71, 72, 73, 78, 80, 74, 80, 79, 81, 73
 | 75, 74, 83, 71, 72, 72, 78, 81, 74, 80, 79, 81, 73
 | 75, 74, 83, 71, 72, 72, 79, 81, 74, 80, 79, 81, 73
 | 75, 74, 83, 71, 72, 73, 78, 81, 74, 80, 79, 81, 73
 | 75, 74, 83, 71, 72, 72, 79, 81, 74, 80, 79, 81, 73
 | 75, 75, 83, 71, 72, 73, 78, 80, 75, 80, 79, 81, 73
 | 75, 75, 83, 71, 72, 73, 78, 80, 75, 80, 79, 81, 73
 | 75, 75, 83, 71, 72, 73, 78, 79, 75, 80, 79, 80, 74
 | 75, 75, 82, 71, 72, 73, 78, 79, 75, 80, 79, 80, 74
 | 75, 75, 82, 71, 72, 73, 78, 79, 75, 80, 79, 80, 74
 | 75, 75, 82, 71, 72, 73, 78, 78, 75, 80, 79, 80, 74
 | 75, 75, 82, 71, 72, 73, 79, 78, 75, 80, 79, 80, 74
 | 75, 75, 82, 71, 72, 73, 79, 78, 75, 80, 79, 80, 74
 | 76, 75, 83, 71, 72, 73, 79, 78, 75, 81, 79, 80, 74
 | 75, 74, 83, 71, 72, 72, 79, 81, 74, 80, 79, 81, 73
 | 75, 74, 83, 71, 72, 72, 79, 82, 74, 80, 79, 81, 73
 | 75, 74, 83, 71, 72, 72, 79, 82, 74, 80, 79, 81, 73
 | 75, 74, 83, 71, 72, 72, 79, 82, 74, 80, 79, 81, 73
 | 75, 73, 83, 71, 72, 72, 79, 82, 74, 80, 79, 81, 73
 | 75, 73, 83, 71, 72, 72, 79, 82, 74, 80, 79, 81, 73
 | 75, 73, 82, 71, 72, 72, 79, 82, 74, 80, 79, 81, 73
 | 75, 74, 82, 71, 72, 72, 79, 80, 74, 80, 79, 81, 73
 | 75, 75, 83, 71, 72, 73, 79, 80, 75, 80, 79, 81, 73
 | 75, 75, 83, 71, 72, 73, 78, 79, 75, 80, 79, 80, 74
 | 75, 73, 82, 71, 72, 72, 79, 83, 74, 80, 79, 81, 73
 | 75, 73, 82, 71, 71, 72, 79, 83, 74, 80, 79, 81, 73
 | 75, 73, 82, 71, 71, 72, 79, 83, 74, 80, 79, 81, 73
 | 75, 73, 81, 71, 71, 72, 79, 82, 74, 80, 80, 81, 73
 | 75, 73, 81, 71, 71, 72, 79, 83, 74, 80, 80, 81, 73
 | 75, 73, 81, 71, 71, 72, 80, 83, 74, 80, 80, 81, 73
 | 75, 73, 81, 71, 71, 72, 80, 83, 74, 80, 80, 81, 73
 | 75, 73, 81, 71, 71, 72, 80, 83, 74, 80, 80, 81, 73
 | 75, 73, 80, 71, 71, 72, 80, 83, 74, 80, 80, 81, 73
 | 75, 73, 80, 71, 71, 72, 80, 83, 74, 80, 80, 81, 73
 | 75, 73, 80, 71, 71, 72, 80, 83, 74, 80, 80, 81, 73
 | 75, 74, 83, 71, 72, 73, 78, 80, 75, 80, 79, 81, 73
 | 75, 74, 83, 71, 72, 73, 79, 80, 74, 80, 79, 81, 73
 | 75, 74, 83, 71, 72, 73, 79, 79, 75, 80, 79, 81, 73
 | 75, 74, 83, 71, 72, 72, 79, 80, 75, 80, 79, 81, 73
 | 75, 74, 83, 71, 72, 72, 79, 81, 74, 80, 79, 82, 73
 | 75, 74, 82, 71, 72, 72, 79, 80, 74, 80, 79, 81, 73
 | 75, 75, 82, 71, 72, 73, 79, 79, 75, 80, 79, 81, 73
 | 75, 75, 82, 71, 72, 73, 79, 79, 75, 81, 79, 81, 74
 | 76, 75, 82, 71, 72, 73, 79, 77, 75, 80, 79, 80, 74
 | 76, 75, 82, 71, 72, 73, 79, 77, 75, 80, 79, 80, 74
 | 75, 73, 80, 70, 71, 71, 80, 81, 74, 82, 81, 83, 73
 | 75, 73, 81, 70, 71, 71, 80, 81, 74, 82, 80, 83, 73
 | 75, 73, 81, 70, 71, 71, 80, 81, 74, 81, 80, 83, 73
 | 75, 73, 81, 70, 71, 72, 80, 82, 74, 81, 80, 83, 73
 | 75, 73, 81, 70, 71, 72, 80, 82, 74, 81, 80, 83, 73
 | 75, 73, 81, 70, 71, 72, 80, 81, 74, 81, 80, 83, 73
 | 75, 73, 81, 70, 71, 72, 80, 81, 74, 81, 80, 82, 73
 | 75, 73, 81, 70, 71, 72, 80, 80, 74, 82, 81, 83, 73
 | 75, 73, 80, 70, 71, 71, 80, 80, 74, 82, 81, 83, 73
 | 75, 73, 80, 70, 71, 71, 80, 81, 74, 82, 81, 83, 73
 | 75, 73, 81, 70, 71, 71, 80, 81, 74, 82, 81, 83, 73
 | 75, 73, 81, 70, 71, 71, 80, 81, 74, 82, 81, 83, 73
 | 75, 73, 81, 70, 71, 72, 80, 81, 74, 82, 80, 83, 73
 | 75, 73, 81, 70, 71, 72, 80, 81, 74, 82, 80, 83, 73
 | 75, 73, 81, 70, 71, 72, 80, 81, 74, 82, 80, 83, 73
 | 75, 73, 80, 70, 71, 72, 80, 81, 74, 82, 81, 83, 73
 | 75, 73, 81, 70, 71, 72, 80, 81, 74, 82, 80, 83, 73
 | 75, 73, 81, 70, 71, 72, 80, 81, 74, 81, 80, 83, 73
 | 75, 73, 81, 70, 71, 72, 80, 81, 74, 82, 80, 83, 73
 | 75, 73, 81, 70, 71, 72, 80, 80, 74, 82, 80, 82, 73
 | 75, 73, 81, 70, 71, 72, 80, 80, 74, 82, 80, 82, 73
 | 75, 73, 81, 70, 71, 72, 80, 81, 74, 81, 80, 83, 73
 | 75, 73, 81, 70, 71, 72, 80, 81, 74, 81, 80, 83, 73
 | 75, 73, 81, 70, 71, 72, 80, 81, 74, 81, 80, 82, 73
 | 75, 73, 79, 70, 71, 71, 81, 81, 74, 82, 82, 82, 73
 | 75, 73, 80, 70, 71, 71, 81, 81, 74, 82, 81, 82, 73
 | 75, 73, 80, 70, 70, 71, 81, 80, 74, 83, 81, 82, 73
 | 75, 73, 81, 70, 71, 71, 81, 79, 74, 82, 81, 82, 73
 | 76, 73, 80, 70, 71, 72, 81, 79, 75, 82, 82, 81, 73
 | 76, 73, 79, 70, 71, 71, 82, 79, 75, 82, 82, 81, 73
 | 76, 72, 79, 70, 70, 71, 82, 79, 75, 82, 83, 81, 73
 | 76, 72, 79, 70, 70, 71, 82, 80, 74, 82, 82, 81, 73
 | 75, 73, 79, 70, 71, 71, 81, 81, 74, 82, 82, 82, 73
 | 75, 73, 80, 70, 70, 71, 81, 80, 74, 82, 82, 82, 73
 | 75, 73, 80, 70, 70, 71, 81, 80, 74, 83, 82, 82, 73
 | 75, 73, 80, 70, 70, 71, 81, 80, 74, 83, 82, 82, 73
 | 75, 73, 80, 70, 70, 71, 81, 79, 74, 83, 82, 82, 73
 | 75, 73, 80, 70, 70, 71, 82, 80, 74, 82, 82, 81, 73
 | 75, 72, 79, 70, 70, 71, 82, 80, 74, 83, 82, 81, 73
 | 75, 73, 80, 70, 70, 71, 82, 80, 74, 83, 82, 81, 73
 | 76, 73, 80, 70, 70, 71, 82, 79, 75, 82, 82, 81, 73
 | 76, 73, 79, 70, 70, 71, 82, 79, 75, 83, 82, 81, 73
 | 76, 73, 80, 70, 71, 71, 82, 79, 75, 82, 82, 81, 73
 | 75, 73, 80, 70, 71, 71, 81, 79, 75, 83, 81, 81, 73
 | 75, 73, 80, 70, 70, 71, 81, 80, 74, 82, 82, 82, 73
 | 75, 72, 79, 70, 70, 71, 82, 80, 74, 83, 82, 81, 73
 | 75, 72, 79, 70, 70, 71, 82, 80, 74, 82, 82, 81, 73
 | 76, 73, 80, 70, 71, 71, 81, 79, 75, 83, 82, 81, 73
 | 75, 73, 80, 70, 71, 71, 81, 79, 74, 82, 81, 82, 73
 | 75, 73, 80, 70, 71, 71, 81, 80, 74, 83, 81, 82, 73
 | 75, 73, 80, 70, 70, 71, 81, 80, 74, 83, 81, 82, 73
 | 76, 73, 79, 70, 71, 72, 82, 79, 75, 82, 82, 80, 73
 | 76, 73, 79, 70, 71, 72, 82, 78, 75, 82, 82, 80, 73
 | 77, 73, 79, 70, 71, 72, 82, 78, 75, 81, 81, 80, 74
 | 76, 73, 79, 70, 71, 72, 83, 79, 75, 82, 82, 80, 73
 | 76, 73, 78, 70, 71, 72, 83, 79, 75, 81, 82, 80, 74
 | 77, 73, 78, 71, 71, 72, 83, 79, 75, 81, 81, 79, 74
 | 77, 73, 77, 72, 72, 73, 83, 78, 76, 80, 80, 78, 74
 | 78, 74, 77, 72, 72, 73, 82, 77, 76, 80, 80, 78, 75
 | 78, 74, 77, 72, 72, 73, 83, 77, 76, 80, 80, 78, 75
 | 78, 74, 78, 71, 72, 73, 82, 77, 77, 80, 80, 78, 75
 | 77, 73, 79, 71, 71, 72, 82, 77, 76, 81, 81, 79, 74
 | 77, 73, 79, 71, 71, 72, 82, 78, 76, 81, 81, 79, 74
 | 77, 73, 78, 70, 71, 72, 83, 78, 75, 81, 82, 79, 74
 | 77, 73, 78, 71, 71, 72, 83, 78, 75, 81, 81, 79, 74
 | 77, 73, 78, 71, 71, 72, 83, 78, 76, 80, 81, 79, 74
 | 77, 73, 78, 71, 71, 72, 83, 78, 76, 80, 81, 78, 74
 | 77, 73, 78, 71, 71, 72, 83, 78, 76, 80, 81, 79, 74
 | 77, 73, 78, 71, 71, 72, 83, 78, 76, 81, 81, 79, 74
 | 77, 73, 78, 71, 71, 72, 83, 78, 75, 81, 81, 79, 74
 | 76, 73, 78, 70, 71, 72, 83, 79, 75, 81, 82, 80, 74
 | 77, 73, 78, 71, 71, 72, 82, 79, 75, 81, 81, 79, 74
 | 77, 73, 78, 71, 71, 72, 83, 78, 76, 81, 81, 79, 74
 | 77, 73, 78, 71, 71, 72, 83, 78, 76, 81, 81, 79, 74
 | 76, 73, 79, 70, 71, 72, 83, 78, 75, 81, 82, 80, 74
 | 77, 73, 79, 70, 71, 72, 82, 78, 76, 81, 81, 79, 74
 | 77, 73, 79, 71, 71, 72, 83, 77, 76, 81, 81, 79, 74
 | 77, 73, 78, 71, 71, 72, 83, 77, 76, 80, 81, 79, 74
 | 76, 73, 78, 70, 71, 72, 83, 79, 75, 81, 82, 80, 74
 | 76, 73, 79, 70, 71, 72, 83, 79, 75, 82, 82, 80, 73
 | 76, 73, 78, 70, 71, 72, 83, 79, 75, 82, 82, 80, 73
 | 76, 73, 78, 71, 71, 72, 83, 79, 75, 81, 82, 80, 74
 | 77, 73, 78, 71, 71, 72, 83, 79, 75, 81, 81, 79, 74
 | 77, 73, 78, 71, 71, 72, 83, 79, 75, 81, 82, 79, 74
 | 77, 73, 78, 71, 71, 72, 83, 79, 75, 81, 81, 79, 74
 | 76, 73, 78, 71, 71, 72, 82, 79, 75, 81, 82, 80, 74
 | 76, 73, 78, 70, 71, 72, 83, 79, 75, 81, 82, 80, 74
 | 76, 73, 79, 70, 71, 72, 82, 78, 75, 81, 82, 80, 74
 | 77, 73, 78, 71, 71, 72, 82, 79, 75, 81, 82, 79, 74
 | 76, 72, 79, 70, 71, 71, 83, 79, 75, 82, 82, 80, 73
 | 76, 73, 79, 70, 71, 71, 83, 79, 75, 82, 82, 80, 73
 | 77, 73, 79, 71, 71, 72, 82, 78, 76, 81, 81, 79, 74
 | 77, 74, 78, 71, 71, 73, 83, 77, 76, 80, 81, 78, 74
 | 77, 73, 78, 71, 71, 72, 83, 77, 76, 81, 81, 79, 74
 | 78, 74, 78, 71, 72, 73, 82, 77, 76, 80, 80, 78, 75
 | 78, 73, 77, 71, 72, 73, 83, 78, 76, 80, 80, 78, 75
 | 77, 73, 77, 71, 72, 73, 83, 78, 76, 80, 81, 78, 74
 | 77, 73, 77, 71, 71, 72, 83, 78, 76, 80, 81, 79, 74
 | 77, 73, 77, 71, 71, 72, 82, 79, 76, 80, 81, 79, 74
 | 78, 73, 77, 72, 72, 73, 82, 78, 76, 80, 80, 78, 75
 | 77, 73, 78, 71, 72, 73, 83, 77, 76, 80, 81, 78, 74
 | 78, 74, 77, 72, 72, 73, 83, 77, 76, 80, 80, 78, 75
 | 78, 74, 77, 72, 72, 73, 83, 77, 76, 80, 80, 78, 75
 | 78, 74, 78, 71, 72, 73, 83, 77, 76, 80, 80, 78, 75
 | 78, 74, 78, 71, 72, 73, 83, 77, 76, 80, 80, 78, 75
 | 76, 73, 79, 70, 71, 72, 83, 79, 75, 81, 82, 80, 74
 | 77, 73, 79, 70, 71, 72, 82, 78, 75, 81, 82, 79, 74
 | 77, 73, 78, 71, 71, 72, 83, 78, 76, 81, 81, 79, 74
 | 77, 73, 78, 71, 71, 72, 83, 78, 76, 81, 81, 79, 74
 | 77, 73, 78, 71, 71, 72, 83, 77, 76, 80, 81, 78, 74
 | 78, 74, 78, 71, 72, 73, 83, 77, 76, 80, 80, 78, 75
 | 78, 74, 78, 71, 72, 73, 83, 77, 76, 80, 80, 78, 75
 | 77, 73, 77, 71, 71, 72, 83, 78, 76, 80, 81, 78, 74
 | 78, 73, 77, 71, 72, 73, 83, 78, 76, 80, 81, 78, 74
 | 77, 73, 78, 71, 71, 72, 83, 79, 75, 81, 82, 79, 74
 | 77, 73, 79, 70, 71, 72, 83, 78, 75, 81, 82, 79, 74
 | 77, 73, 78, 71, 71, 72, 83, 78, 76, 81, 81, 79, 74
 | 77, 73, 78, 71, 71, 72, 83, 78, 76, 81, 81, 79, 74
 | 77, 73, 78, 71, 71, 72, 83, 78, 76, 80, 81, 79, 74
 | 77, 73, 78, 71, 71, 72, 83, 78, 76, 81, 81, 79, 74
 | 77, 73, 78, 71, 71, 72, 83, 78, 76, 81, 81, 79, 74
 | 76, 73, 79, 70, 71, 72, 82, 78, 75, 81, 82, 80, 74
 | 76, 73, 79, 70, 71, 72, 82, 79, 75, 82, 82, 80, 74
 | 77, 73, 78, 71, 71, 72, 83, 79, 75, 81, 81, 79, 74
 | 83, 77, 73, 77, 76, 77, 77, 72, 80, 74, 75, 73, 80
 | 83, 77, 73, 77, 76, 77, 77, 71, 81, 74, 75, 72, 80
 | 82, 77, 73, 77, 76, 77, 77, 71, 81, 74, 75, 72, 80
 | 83, 77, 73, 77, 76, 77, 77, 71, 81, 74, 75, 72, 80
 | 83, 78, 74, 76, 76, 77, 77, 71, 81, 74, 74, 72, 80
 | 82, 78, 74, 76, 76, 77, 77, 71, 81, 74, 74, 72, 80
 | 83, 77, 73, 77, 76, 77, 77, 72, 80, 74, 75, 73, 80
 | 83, 77, 73, 77, 76, 77, 77, 71, 81, 74, 75, 73, 80
 | 83, 77, 74, 76, 76, 77, 77, 71, 81, 74, 75, 73, 80
 | 83, 77, 74, 76, 76, 77, 77, 71, 81, 74, 75, 72, 80
 | 83, 77, 74, 76, 76, 77, 77, 71, 81, 74, 75, 73, 79
 | 83, 77, 74, 76, 76, 77, 77, 71, 81, 74, 75, 73, 79
 | 83, 78, 74, 76, 76, 77, 77, 71, 81, 74, 75, 73, 79
 | 83, 78, 74, 76, 76, 77, 77, 71, 81, 74, 74, 72, 80
 | 82, 78, 73, 77, 76, 78, 77, 71, 81, 74, 74, 72, 80
 | 83, 78, 73, 77, 76, 78, 77, 71, 81, 74, 74, 72, 80
 | 82, 77, 73, 77, 76, 77, 77, 71, 81, 74, 74, 72, 80
 | 82, 77, 73, 77, 76, 77, 77, 71, 81, 74, 74, 72, 80
 | 83, 77, 74, 76, 76, 77, 78, 72, 80, 75, 75, 73, 80
 | 83, 77, 74, 76, 76, 77, 78, 72, 81, 75, 75, 73, 79
 | 83, 78, 73, 77, 76, 78, 77, 71, 81, 74, 74, 72, 80
 | 83, 77, 74, 76, 76, 77, 78, 71, 81, 75, 75, 73, 79
 | 83, 78, 73, 77, 76, 77, 77, 71, 81, 74, 74, 72, 80
 | 82, 78, 74, 76, 76, 77, 77, 71, 81, 74, 75, 72, 80
 | 83, 78, 74, 76, 76, 78, 77, 70, 81, 74, 74, 72, 80
 | 83, 78, 74, 76, 76, 77, 77, 71, 81, 74, 75, 72, 80
 | 83, 77, 73, 77, 76, 77, 77, 72, 80, 74, 75, 73, 80
 | 83, 77, 73, 77, 76, 77, 77, 72, 80, 74, 75, 72, 80
 | 83, 77, 73, 77, 76, 77, 77, 72, 80, 74, 75, 73, 80
 | 83, 77, 73, 77, 76, 77, 77, 71, 80, 74, 75, 72, 80
 | 82, 77, 73, 77, 76, 77, 77, 72, 80, 74, 75, 73, 80
 | 83, 77, 73, 77, 76, 77, 78, 72, 80, 75, 75, 73, 80
 | 82, 77, 73, 78, 77, 77, 76, 72, 79, 74, 74, 72, 81
 | 82, 77, 73, 78, 77, 77, 76, 72, 79, 74, 74, 72, 81
 | 83, 77, 73, 78, 77, 78, 76, 71, 80, 74, 74, 72, 82
 | 83, 77, 73, 78, 77, 78, 76, 71, 80, 74, 74, 72, 82
 | 83, 77, 73, 78, 77, 78, 76, 71, 80, 73, 74, 72, 82
 | 83, 78, 73, 78, 77, 78, 76, 71, 81, 73, 74, 72, 81
 | 82, 78, 73, 78, 77, 78, 76, 70, 81, 73, 74, 72, 81
 | 83, 78, 72, 78, 77, 78, 76, 70, 81, 73, 73, 71, 81
 | 83, 78, 72, 78, 77, 79, 76, 70, 82, 73, 73, 71, 81
 | 82, 79, 73, 78, 77, 79, 76, 70, 82, 73, 73, 71, 81
 | 82, 79, 73, 77, 77, 79, 76, 70, 82, 73, 73, 71, 81
 | 81, 80, 73, 77, 78, 79, 76, 69, 83, 73, 73, 71, 81
 | 81, 80, 74, 77, 78, 79, 76, 69, 82, 73, 73, 71, 81
 | 81, 79, 73, 77, 78, 79, 76, 69, 82, 73, 73, 71, 81
 | 82, 79, 73, 78, 77, 79, 76, 70, 82, 73, 73, 71, 81
 | 82, 78, 73, 78, 77, 78, 76, 70, 82, 73, 73, 71, 81
 | 83, 78, 73, 78, 77, 78, 76, 70, 81, 73, 74, 71, 81
 | 83, 77, 73, 78, 77, 78, 76, 71, 81, 73, 74, 72, 81
 | 83, 77, 73, 78, 77, 78, 76, 71, 80, 74, 74, 72, 81
 | 83, 77, 73, 78, 77, 78, 76, 71, 80, 74, 74, 72, 81
 | 83, 77, 73, 78, 76, 77, 76, 72, 80, 74, 74, 72, 81
 | 82, 77, 73, 78, 76, 77, 77, 72, 79, 74, 74, 72, 81
 | 82, 77, 73, 79, 77, 78, 76, 71, 80, 74, 74, 72, 82
 | 82, 77, 73, 79, 77, 78, 76, 71, 80, 73, 74, 72, 82
 | 83, 77, 73, 79, 77, 78, 76, 71, 80, 73, 74, 72, 82
 | 82, 77, 72, 79, 77, 78, 76, 71, 80, 73, 74, 72, 82
 | 82, 78, 72, 79, 77, 78, 76, 71, 80, 73, 74, 72, 82
 | 82, 78, 72, 79, 77, 78, 76, 70, 81, 73, 73, 71, 82
 | 83, 78, 72, 79, 77, 78, 76, 70, 81, 73, 73, 71, 82
 | 83, 78, 72, 79, 77, 78, 76, 70, 81, 73, 73, 71, 82
 | 82, 78, 72, 79, 78, 79, 76, 70, 82, 73, 73, 71, 82
 | 82, 79, 72, 79, 78, 79, 76, 70, 82, 73, 73, 71, 82
 | 82, 79, 73, 78, 78, 79, 76, 70, 82, 73, 73, 71, 81
 | 81, 79, 73, 78, 78, 79, 76, 69, 83, 73, 73, 71, 81
 | 81, 79, 73, 78, 78, 79, 75, 69, 83, 73, 73, 71, 82
 | 81, 79, 73, 78, 78, 79, 76, 69, 83, 73, 73, 71, 81
 | 81, 80, 73, 78, 78, 79, 75, 69, 83, 73, 73, 71, 82
 | 81, 80, 73, 77, 78, 79, 76, 69, 83, 73, 73, 71, 81
 | 80, 80, 73, 77, 78, 79, 76, 69, 83, 73, 73, 71, 81
 | 81, 80, 73, 77, 78, 79, 76, 69, 83, 73, 73, 71, 81
 | 82, 79, 73, 78, 77, 79, 76, 70, 82, 73, 73, 71, 81
 | 81, 79, 73, 78, 78, 79, 76, 69, 83, 73, 73, 71, 81
 | 82, 78, 73, 78, 77, 78, 76, 71, 81, 73, 74, 72, 81
 | 82, 79, 73, 78, 78, 79, 76, 70, 82, 73, 73, 71, 81
 | 82, 79, 72, 78, 78, 79, 76, 69, 82, 73, 73, 71, 82
 | 83, 77, 73, 78, 77, 78, 76, 71, 80, 74, 74, 72, 81
 | 82, 77, 72, 79, 77, 78, 76, 71, 80, 73, 74, 72, 82
 | 83, 78, 73, 78, 77, 78, 76, 71, 80, 73, 74, 72, 82
 | 82, 78, 72, 79, 77, 78, 76, 70, 81, 73, 73, 71, 82
 | 82, 78, 72, 80, 78, 79, 75, 70, 80, 73, 73, 71, 83
 | 82, 78, 72, 80, 78, 79, 75, 70, 80, 73, 73, 71, 82
 | 82, 78, 72, 80, 78, 79, 75, 70, 81, 72, 73, 71, 83
 | 82, 79, 72, 80, 78, 79, 75, 69, 81, 72, 73, 71, 83
 | 82, 79, 72, 80, 79, 80, 75, 69, 81, 72, 72, 70, 83
 | 81, 79, 72, 80, 79, 80, 75, 69, 81, 72, 72, 70, 83
 | 81, 80, 72, 80, 79, 80, 75, 69, 82, 72, 72, 70, 82
 | 82, 79, 72, 80, 79, 80, 75, 69, 81, 72, 72, 70, 83
 | 81, 78, 72, 80, 78, 79, 75, 70, 80, 73, 73, 71, 83
 | 81, 78, 72, 80, 78, 79, 75, 70, 80, 73, 73, 71, 82
 | 82, 78, 72, 80, 78, 79, 75, 70, 81, 72, 73, 71, 83
 | 81, 79, 72, 80, 79, 80, 75, 69, 81, 72, 73, 71, 83
 | 81, 79, 72, 80, 79, 80, 75, 69, 81, 72, 72, 70, 83
 | 81, 79, 72, 80, 79, 80, 75, 69, 81, 72, 72, 70, 83
 | 81, 80, 72, 80, 79, 80, 75, 69, 81, 72, 72, 70, 83
 | 81, 79, 72, 80, 79, 80, 75, 69, 81, 72, 72, 70, 83
 | 81, 78, 72, 80, 78, 79, 75, 70, 80, 73, 73, 71, 82
 | 81, 78, 72, 80, 78, 79, 75, 70, 80, 73, 73, 71, 83
 | 82, 78, 72, 80, 78, 79, 75, 70, 80, 73, 73, 71, 82
 | 82, 78, 72, 80, 78, 79, 75, 70, 80, 73, 73, 71, 83
 | 81, 79, 72, 80, 79, 79, 75, 70, 80, 72, 73, 71, 83
 | 81, 80, 72, 80, 79, 80, 75, 69, 81, 72, 72, 70, 83
 | 81, 79, 72, 80, 79, 80, 75, 69, 81, 72, 72, 70, 82
 | 81, 80, 72, 80, 79, 80, 75, 69, 81, 72, 72, 70, 83
 | 81, 80, 72, 80, 79, 80, 75, 69, 82, 72, 72, 70, 82
 | 81, 80, 72, 80, 80, 81, 74, 69, 81, 72, 72, 70, 82
 | 80, 80, 72, 79, 79, 81, 74, 68, 82, 72, 72, 70, 83
 | 81, 80, 72, 79, 79, 80, 75, 69, 82, 72, 72, 70, 82
 | 80, 80, 72, 79, 79, 81, 75, 68, 82, 72, 72, 70, 83
 | 82, 79, 72, 80, 78, 79, 75, 69, 81, 72, 73, 71, 83
 | 81, 79, 72, 80, 79, 80, 75, 69, 81, 72, 73, 71, 83
 | 81, 79, 72, 80, 79, 80, 75, 69, 81, 72, 72, 71, 83
 | 82, 79, 72, 80, 78, 79, 75, 70, 81, 72, 73, 71, 83
 | 80, 79, 72, 82, 80, 81, 74, 69, 80, 72, 72, 71, 81
 | 80, 79, 72, 83, 81, 81, 74, 70, 79, 72, 72, 71, 81
 | 79, 80, 72, 83, 81, 81, 74, 70, 79, 72, 72, 71, 80
 | 79, 80, 72, 82, 81, 80, 74, 70, 79, 72, 72, 71, 80
 | 79, 80, 72, 83, 81, 80, 74, 70, 79, 72, 72, 71, 80
 | 79, 80, 73, 83, 81, 80, 74, 70, 78, 73, 73, 71, 79
 | 78, 80, 73, 83, 81, 80, 74, 71, 78, 73, 73, 72, 79
 | 80, 80, 72, 83, 81, 81, 74, 69, 79, 72, 72, 71, 81
 | 79, 80, 72, 83, 81, 81, 74, 70, 79, 72, 72, 71, 80
 | 79, 80, 72, 83, 81, 81, 74, 70, 79, 72, 72, 71, 80
 | 79, 80, 72, 83, 81, 80, 74, 70, 79, 72, 72, 71, 80
 | 79, 80, 72, 82, 81, 81, 74, 70, 79, 72, 72, 71, 80
 | 79, 80, 72, 83, 81, 80, 74, 70, 79, 72, 72, 71, 80
 | 79, 80, 72, 83, 81, 80, 74, 70, 79, 72, 72, 71, 80
 | 79, 80, 72, 83, 81, 80, 74, 70, 79, 72, 73, 71, 80
 | 79, 80, 72, 83, 81, 80, 74, 70, 79, 72, 72, 71, 80
 | 79, 80, 73, 83, 81, 80, 74, 70, 78, 72, 73, 71, 80
 | 79, 80, 73, 83, 81, 80, 74, 70, 78, 72, 73, 71, 79
 | 78, 80, 73, 83, 81, 80, 74, 71, 78, 73, 73, 71, 79
 | 78, 80, 73, 83, 81, 80, 74, 71, 78, 73, 73, 72, 79
 | 78, 80, 73, 83, 81, 80, 74, 71, 78, 73, 73, 72, 79
 | 79, 80, 72, 82, 81, 81, 74, 70, 79, 72, 72, 71, 80
 | 79, 80, 72, 83, 81, 81, 74, 70, 79, 72, 72, 71, 80
 | 79, 80, 72, 83, 81, 81, 74, 69, 79, 72, 72, 71, 81
 | 79, 80, 72, 83, 81, 81, 74, 70, 79, 72, 72, 71, 80
 | 78, 80, 73, 83, 81, 80, 74, 71, 78, 73, 73, 72, 79
 | 78, 80, 73, 83, 81, 80, 74, 71, 78, 73, 73, 72, 79
 | 78, 80, 73, 83, 81, 80, 74, 71, 78, 73, 73, 72, 79
 | 78, 80, 73, 83, 81, 80, 74, 71, 78, 73, 73, 72, 79
 | 78, 80, 73, 83, 81, 80, 74, 70, 78, 72, 73, 71, 79
 | 78, 80, 73, 83, 81, 80, 74, 71, 78, 73, 73, 72, 79
 | 79, 80, 72, 83, 81, 80, 74, 70, 79, 72, 72, 71, 80
 | 79, 80, 72, 83, 81, 81, 74, 70, 79, 72, 72, 71, 80
 | 79, 80, 72, 83, 81, 81, 74, 70, 79, 72, 72, 71, 80
 | 79, 80, 72, 83, 81, 80, 74, 70, 79, 72, 72, 71, 80
 | 79, 80, 72, 83, 81, 80, 74, 70, 79, 72, 72, 71, 80
 | 79, 80, 73, 83, 81, 80, 74, 70, 78, 72, 73, 71, 80
 | 78, 80, 73, 83, 81, 80, 74, 70, 78, 73, 73, 71, 79
 | 78, 80, 73, 83, 81, 80, 74, 71, 78, 73, 73, 72, 79
 | 79, 80, 72, 83, 81, 80, 74, 70, 78, 72, 72, 71, 80
 | 79, 79, 72, 82, 80, 80, 74, 70, 79, 72, 73, 71, 80
 | 79, 79, 72, 83, 80, 80, 74, 71, 79, 73, 73, 71, 80
 | 79, 79, 72, 83, 80, 80, 74, 71, 79, 72, 73, 71, 80
 | 79, 79, 72, 83, 80, 80, 74, 70, 79, 72, 73, 71, 80
 | 79, 79, 72, 83, 81, 80, 74, 70, 79, 72, 73, 71, 80
 | 79, 79, 73, 83, 80, 80, 74, 71, 78, 73, 73, 72, 80
 | 79, 79, 73, 83, 80, 80, 74, 71, 78, 73, 73, 72, 79
 | 79, 79, 73, 83, 81, 80, 74, 71, 78, 73, 73, 72, 80
 | 79, 79, 73, 83, 80, 80, 74, 71, 78, 73, 73, 72, 80
 | 79, 79, 73, 83, 80, 79, 74, 71, 78, 73, 73, 72, 79
 | 79, 79, 73, 83, 80, 80, 74, 71, 78, 73, 73, 72, 80
 | 79, 79, 72, 83, 80, 80, 74, 71, 79, 73, 73, 71, 80
 | 79, 79, 73, 83, 80, 80, 74, 71, 79, 73, 73, 71, 80
 | 79, 79, 73, 83, 80, 80, 74, 71, 78, 73, 73, 72, 80
 | 79, 79, 73, 83, 80, 80, 74, 71, 78, 73, 73, 72, 80
 | 79, 79, 73, 83, 80, 80, 74, 71, 78, 73, 73, 72, 80
 | 79, 79, 73, 83, 80, 80, 74, 71, 78, 73, 73, 72, 79
 | 79, 79, 73, 82, 80, 80, 74, 71, 78, 73, 73, 72, 79
 | 79, 79, 73, 83, 80, 80, 74, 71, 78, 73, 73, 72, 80
 | 79, 79, 73, 83, 80, 80, 74, 71, 78, 73, 73, 72, 80
 | 79, 79, 72, 82, 80, 80, 74, 70, 79, 72, 73, 71, 80
 | 79, 79, 72, 83, 80, 80, 74, 70, 79, 72, 73, 71, 80
 | 79, 79, 72, 83, 80, 80, 74, 70, 79, 72, 73, 71, 80
 | 79, 79, 73, 83, 80, 80, 74, 71, 78, 73, 73, 72, 80
 | 79, 79, 73, 83, 80, 80, 74, 71, 78, 73, 73, 72, 80
 | 79, 79, 73, 83, 80, 80, 74, 71, 78, 73, 73, 72, 80
 | 79, 79, 73, 83, 80, 80, 74, 71, 78, 73, 73, 72, 80
 | 79, 79, 73, 83, 80, 80, 74, 71, 78, 73, 73, 72, 80
 | 79, 80, 72, 82, 82, 81, 74, 69, 79, 72, 72, 71, 80
 | 79, 80, 72, 83, 82, 81, 74, 70, 79, 72, 72, 71, 80
 | 78, 80, 72, 83, 82, 81, 74, 70, 79, 72, 72, 71, 80
 | 78, 80, 73, 83, 81, 80, 74, 70, 78, 72, 73, 71, 79
 | 78, 80, 73, 83, 81, 80, 74, 70, 78, 72, 72, 71, 79
 | 78, 80, 72, 83, 82, 81, 74, 70, 79, 72, 72, 71, 80
 | 79, 80, 72, 83, 82, 81, 74, 70, 79, 72, 72, 71, 80
 | 79, 80, 72, 83, 82, 81, 74, 69, 79, 72, 72, 71, 80
 | 78, 81, 72, 83, 82, 81, 74, 70, 79, 72, 72, 71, 80
 | 78, 80, 72, 83, 82, 81, 74, 70, 78, 72, 72, 71, 79
 | 78, 80, 73, 83, 81, 80, 74, 70, 78, 72, 72, 71, 79
 | 78, 80, 72, 83, 82, 80, 74, 70, 78, 72, 72, 71, 80
 | 79, 80, 72, 83, 82, 81, 74, 70, 79, 72, 72, 71, 80
 | 79, 81, 72, 83, 82, 81, 74, 70, 79, 72, 72, 71, 80
 | 79, 80, 72, 83, 82, 81, 74, 70, 79, 72, 72, 71, 80
 | 79, 80, 72, 82, 82, 81, 74, 70, 79, 72, 72, 71, 80
 | 79, 80, 72, 83, 82, 81, 74, 70, 79, 72, 72, 71, 80
 | 78, 80, 73, 83, 81, 80, 74, 70, 78, 72, 72, 71, 79
 | 78, 80, 73, 83, 81, 80, 74, 70, 78, 72, 72, 71, 79
 | 78, 80, 72, 83, 82, 81, 74, 70, 78, 72, 72, 71, 79
 | 79, 80, 72, 83, 82, 81, 74, 70, 79, 72, 72, 71, 80
 | 79, 80, 72, 82, 82, 81, 74, 69, 79, 72, 72, 71, 80
 | 78, 80, 73, 83, 82, 80, 74, 70, 78, 72, 72, 71, 79
 | 79, 80, 72, 83, 82, 81, 74, 70, 79, 72, 72, 71, 80
 | 79, 81, 72, 81, 82, 83, 74, 69, 80, 72, 72, 70, 81
 | 79, 81, 72, 80, 82, 83, 74, 69, 80, 72, 72, 70, 81
 | 79, 81, 72, 81, 82, 83, 74, 69, 80, 72, 72, 70, 81
 | 79, 82, 72, 80, 82, 83, 74, 69, 80, 72, 72, 70, 80
 | 78, 82, 72, 80, 82, 83, 74, 69, 80, 72, 72, 70, 81
 | 78, 82, 72, 80, 82, 83, 74, 68, 80, 72, 72, 70, 81
 | 78, 82, 73, 79, 81, 82, 74, 69, 80, 72, 72, 71, 80
 | 78, 83, 73, 79, 81, 82, 74, 69, 80, 72, 72, 71, 80
 | 78, 82, 73, 79, 81, 82, 74, 69, 80, 72, 72, 71, 80
 | 78, 82, 73, 79, 81, 82, 74, 68, 80, 72, 72, 70, 81
 | 79, 82, 72, 80, 82, 83, 74, 68, 80, 72, 72, 70, 81
 | 79, 82, 72, 80, 82, 83, 74, 68, 80, 72, 72, 70, 81
 | 79, 81, 72, 80, 82, 83, 74, 68, 80, 72, 72, 70, 81
 | 78, 82, 72, 80, 82, 83, 74, 68, 80, 72, 72, 70, 81
 | 78, 82, 73, 79, 81, 82, 74, 69, 80, 72, 72, 71, 80
 | 78, 83, 73, 79, 81, 82, 74, 69, 80, 72, 72, 71, 80
 | 78, 82, 73, 79, 81, 82, 74, 69, 80, 72, 72, 71, 80
 | 78, 82, 73, 79, 82, 82, 74, 69, 80, 72, 72, 70, 80
 | 79, 82, 72, 80, 82, 83, 74, 68, 80, 72, 72, 70, 81
 | 79, 82, 72, 80, 82, 83, 74, 68, 80, 72, 72, 70, 81
 | 78, 83, 73, 78, 81, 81, 74, 69, 80, 72, 72, 71, 80
 | 78, 83, 73, 78, 80, 81, 74, 69, 80, 73, 72, 71, 80
 | 78, 83, 73, 78, 81, 81, 74, 69, 80, 72, 72, 71, 80
 | 78, 83, 73, 79, 81, 82, 74, 69, 80, 72, 72, 71, 81
 | 79, 82, 73, 79, 81, 82, 74, 68, 80, 72, 72, 70, 81
 | 79, 81, 72, 80, 82, 83, 74, 68, 80, 72, 72, 70, 81
 | 78, 83, 73, 78, 81, 81, 74, 69, 80, 73, 72, 71, 80
 | 78, 82, 73, 79, 81, 82, 74, 69, 80, 72, 72, 71, 81
 | 79, 82, 72, 80, 81, 82, 74, 68, 80, 72, 72, 70, 81
 | 79, 82, 72, 79, 82, 82, 74, 68, 80, 72, 72, 70, 81
 | 79, 82, 73, 79, 81, 82, 74, 69, 80, 72, 72, 70, 81
 | 79, 82, 73, 79, 81, 82, 74, 68, 80, 72, 72, 70, 81
 | 78, 81, 72, 82, 82, 82, 74, 69, 79, 72, 72, 71, 80
 | 78, 82, 72, 81, 83, 82, 74, 69, 79, 72, 72, 70, 80
 | 78, 82, 72, 80, 83, 82, 74, 69, 79, 72, 72, 70, 80
 | 78, 82, 73, 80, 82, 82, 74, 69, 79, 72, 72, 70, 80
 | 78, 83, 73, 79, 82, 82, 74, 69, 79, 72, 72, 71, 80
 | 78, 83, 73, 79, 81, 81, 74, 69, 80, 73, 72, 71, 80
 | 78, 83, 74, 78, 81, 81, 74, 69, 80, 73, 73, 71, 79
 | 78, 83, 75, 77, 80, 80, 75, 70, 79, 74, 73, 72, 79
 | 78, 82, 74, 77, 80, 80, 75, 70, 79, 73, 73, 72, 79
 | 78, 83, 74, 78, 81, 81, 74, 69, 79, 73, 73, 72, 79
 | 78, 83, 74, 78, 81, 81, 74, 69, 79, 73, 72, 71, 80
 | 78, 83, 73, 79, 81, 82, 74, 69, 79, 72, 72, 71, 80
 | 78, 83, 73, 79, 82, 82, 74, 69, 79, 72, 72, 71, 80
 | 78, 83, 73, 80, 82, 82, 74, 69, 79, 72, 72, 71, 80
 | 78, 82, 72, 80, 83, 82, 74, 69, 79, 72, 72, 70, 80
 | 78, 82, 72, 81, 83, 82, 74, 69, 79, 72, 72, 70, 80
 | 78, 82, 72, 81, 83, 82, 74, 69, 79, 72, 72, 70, 80
 | 78, 81, 72, 82, 83, 81, 74, 69, 79, 72, 72, 71, 80
 | 78, 82, 72, 81, 83, 82, 74, 69, 79, 72, 72, 70, 80
 | 78, 82, 72, 81, 83, 82, 74, 69, 79, 72, 72, 71, 80
 | 78, 82, 72, 81, 83, 82, 74, 69, 79, 72, 72, 71, 80
 | 78, 82, 73, 80, 83, 82, 74, 69, 79, 72, 72, 71, 80
 | 78, 83, 73, 80, 82, 82, 74, 69, 79, 72, 72, 71, 80
 | 78, 82, 73, 80, 83, 82, 74, 69, 79, 72, 72, 71, 80
 | 78, 83, 73, 80, 82, 82, 74, 69, 79, 72, 72, 71, 80
 | 78, 83, 73, 79, 82, 82, 74, 69, 79, 72, 72, 71, 80
 | 78, 82, 73, 80, 82, 82, 74, 69, 79, 72, 72, 71, 80
 | 78, 83, 73, 80, 82, 82, 74, 69, 79, 72, 72, 71, 80
 | 78, 83, 73, 80, 82, 82, 74, 69, 79, 72, 72, 71, 80
 | 78, 83, 73, 79, 82, 82, 74, 69, 79, 72, 72, 71, 80
 | 78, 83, 73, 79, 82, 82, 74, 69, 79, 72, 72, 71, 80
 | 78, 83, 73, 79, 81, 81, 74, 69, 79, 73, 72, 71, 80
 | 78, 83, 73, 79, 82, 81, 74, 69, 79, 73, 72, 71, 80
 | 78, 83, 73, 79, 82, 81, 74, 69, 79, 72, 72, 71, 80
 | 78, 82, 74, 78, 81, 81, 74, 69, 79, 73, 72, 71, 79
 | 78, 82, 74, 78, 81, 81, 74, 70, 79, 73, 73, 72, 79
 | 78, 82, 74, 78, 80, 81, 75, 70, 79, 73, 73, 72, 79
 | 78, 82, 74, 78, 80, 80, 75, 70, 79, 73, 73, 72, 79
 | 78, 83, 75, 77, 80, 80, 75, 70, 79, 74, 73, 72, 79
 | 78, 83, 74, 77, 80, 80, 75, 70, 79, 73, 73, 72, 79
 | 78, 82, 74, 77, 80, 80, 75, 70, 79, 73, 73, 72, 79
 | 78, 83, 75, 77, 80, 80, 75, 70, 79, 74, 73, 72, 79
 | 77, 83, 75, 77, 79, 80, 75, 70, 79, 74, 73, 73, 79
 | 77, 83, 75, 77, 79, 80, 75, 70, 79, 74, 73, 73, 79
 | 78, 82, 74, 78, 80, 80, 75, 70, 79, 73, 73, 72, 79
 | 78, 82, 74, 78, 81, 81, 74, 70, 79, 73, 73, 72, 79
 | 78, 82, 73, 79, 82, 81, 74, 69, 79, 73, 72, 71, 80
 | 78, 83, 73, 79, 82, 81, 74, 69, 79, 73, 72, 71, 80
 | 78, 83, 73, 80, 82, 82, 74, 69, 79, 72, 72, 71, 80
 | 78, 81, 72, 82, 83, 82, 74, 69, 79, 72, 72, 71, 80
 | 78, 82, 72, 81, 83, 82, 74, 69, 79, 72, 72, 70, 80
 | 78, 82, 72, 81, 83, 82, 74, 69, 79, 72, 72, 71, 80
 | 78, 82, 72, 81, 83, 82, 74, 69, 79, 72, 72, 71, 80
 | 78, 82, 72, 82, 83, 82, 74, 69, 79, 72, 72, 71, 80
 | 78, 82, 73, 80, 83, 82, 74, 69, 79, 72, 72, 71, 80
 | 78, 83, 73, 79, 82, 82, 74, 69, 79, 72, 72, 71, 80
 | 78, 83, 73, 79, 81, 81, 74, 69, 79, 73, 72, 71, 80
 | 78, 83, 74, 78, 81, 81, 74, 69, 79, 73, 72, 71, 80
 | 78, 83, 74, 78, 81, 81, 74, 69, 80, 73, 72, 71, 80
 | 78, 83, 74, 77, 80, 80, 75, 70, 79, 73, 73, 72, 79
 | 78, 83, 74, 78, 80, 81, 74, 70, 79, 73, 73, 72, 79
 | 78, 83, 75, 77, 80, 80, 75, 70, 79, 74, 73, 72, 79
 | 77, 83, 75, 77, 80, 80, 75, 70, 79, 74, 73, 72, 79
 | 78, 81, 72, 82, 83, 81, 74, 69, 79, 72, 72, 71, 80
 | 78, 82, 72, 81, 83, 82, 74, 69, 79, 72, 72, 71, 80
 | 78, 81, 72, 82, 83, 81, 74, 69, 79, 72, 72, 71, 80
 | 78, 82, 72, 81, 83, 81, 74, 69, 79, 72, 72, 71, 80
 | 78, 82, 72, 81, 83, 82, 74, 69, 79, 72, 72, 71, 80
 | 78, 82, 72, 81, 82, 82, 74, 69, 79, 72, 72, 71, 80
 | 78, 82, 72, 81, 83, 81, 74, 69, 79, 72, 72, 71, 80
 | 78, 82, 73, 81, 83, 82, 74, 69, 79, 72, 72, 71, 80
 | 78, 83, 73, 80, 82, 81, 74, 69, 79, 72, 72, 71, 79
 | 78, 83, 73, 80, 82, 81, 74, 69, 79, 72, 72, 71, 79
 | 78, 83, 73, 80, 82, 81, 74, 69, 79, 72, 72, 71, 79
 | 77, 83, 73, 79, 82, 81, 74, 69, 79, 73, 72, 71, 79
 | 77, 83, 74, 79, 81, 81, 74, 70, 79, 73, 72, 71, 79
 | 77, 82, 74, 78, 81, 81, 74, 70, 79, 73, 73, 72, 79
 | 77, 83, 74, 79, 81, 81, 74, 70, 79, 73, 73, 72, 79
 | 77, 83, 73, 79, 82, 81, 74, 70, 79, 73, 72, 71, 79
 | 77, 83, 73, 79, 82, 81, 74, 69, 79, 73, 72, 71, 79
 | 78, 83, 73, 80, 82, 81, 74, 69, 79, 72, 72, 71, 79
 | 78, 83, 73, 81, 82, 81, 74, 69, 79, 72, 72, 71, 79
 | 78, 83, 73, 80, 82, 81, 74, 69, 79, 72, 72, 71, 79
 | 77, 83, 73, 80, 82, 81, 74, 69, 79, 72, 72, 71, 79
 | 77, 83, 73, 80, 82, 81, 74, 70, 79, 73, 72, 71, 79
 | 78, 83, 73, 80, 82, 81, 74, 69, 79, 72, 72, 71, 79
 | 78, 83, 73, 80, 82, 81, 74, 69, 79, 72, 72, 71, 79
 | 77, 83, 73, 79, 82, 81, 74, 70, 79, 73, 72, 71, 79
 | 77, 83, 73, 80, 82, 81, 74, 70, 79, 72, 72, 71, 79
 | 77, 83, 73, 79, 82, 81, 74, 70, 79, 73, 72, 71, 79
 | 77, 83, 74, 79, 81, 81, 74, 70, 79, 73, 73, 72, 79
 | 77, 82, 74, 79, 81, 81, 74, 70, 79, 73, 73, 72, 79
 | 77, 82, 74, 78, 81, 81, 74, 70, 79, 73, 73, 72, 79
 | 77, 83, 74, 79, 81, 81, 74, 70, 79, 73, 73, 72, 79
 | 77, 83, 74, 79, 82, 81, 74, 70, 79, 73, 72, 71, 79
 | 77, 83, 73, 80, 82, 81, 74, 70, 79, 73, 72, 71, 79
 | 78, 83, 73, 80, 82, 81, 74, 69, 79, 72, 72, 71, 79
 | 78, 83, 73, 80, 82, 81, 74, 69, 79, 72, 72, 71, 79
 | 77, 82, 74, 79, 81, 81, 74, 70, 79, 73, 73, 72, 79
 | 77, 82, 74, 78, 81, 80, 75, 70, 79, 73, 73, 72, 79
 | 77, 82, 74, 78, 81, 80, 74, 70, 79, 73, 73, 72, 79
 | 77, 82, 74, 78, 81, 80, 74, 70, 79, 73, 73, 72, 79
 | 77, 82, 74, 79, 81, 80, 74, 70, 79, 73, 73, 72, 79
 | 77, 83, 74, 79, 81, 81, 74, 70, 79, 73, 73, 72, 79
 | 77, 83, 74, 79, 81, 81, 74, 70, 79, 73, 72, 72, 79
 | 77, 83, 73, 79, 82, 81, 74, 70, 79, 73, 72, 71, 79
 | 77, 83, 73, 80, 82, 81, 74, 70, 79, 73, 72, 71, 79
 | 78, 83, 73, 81, 82, 81, 74, 70, 79, 72, 72, 71, 79
 | 78, 83, 73, 80, 82, 81, 74, 70, 79, 72, 72, 71, 79
 | 77, 83, 73, 80, 82, 81, 74, 70, 79, 72, 72, 71, 79
 | 77, 83, 73, 80, 82, 81, 74, 70, 78, 73, 72, 71, 79
 | 77, 82, 73, 80, 82, 81, 74, 70, 79, 73, 72, 72, 79
 | 77, 82, 74, 79, 82, 81, 74, 70, 79, 73, 72, 72, 79
 | 77, 83, 74, 79, 81, 81, 74, 70, 79, 73, 73, 72, 79
 | 77, 83, 74, 79, 81, 81, 74, 70, 79, 73, 73, 72, 79
 | 77, 82, 74, 79, 81, 81, 74, 70, 78, 73, 73, 72, 79
 | 77, 82, 73, 80, 82, 81, 74, 70, 79, 73, 72, 71, 79
 | 77, 83, 73, 80, 82, 81, 74, 70, 79, 73, 72, 71, 79 |];
 P=[8, 8, 8, 8, 8, 8, 8, 3, 3, 3, 3, 3, 3, 3, 3, 3, 3, 3, 8, 8, 8, 8, 8, 8, 8, 8, 8, 3, 3, 3, 3, 3, 3, 3, 3, 3, 3, 3, 3, 3, 3, 3, 3, 8, 8, 8, 8, 8, 8, 8, 8, 8, 8, 8, 3, 3, 3, 3, 3, 3, 3, 3, 3, 3, 3, 3, 3, 3, 3, 3, 3, 3, 3, 3, 3, 3, 3, 3, 3, 3, 3, 3, 8, 8, 3, 3, 3, 8, 8, 8, 8, 8, 8, 8, 8, 8, 8, 8, 3, 3, 3, 3, 3, 3, 3, 3, 3, 3, 12, 12, 12, 12, 12, 12, 12, 12, 12, 12, 12, 12, 12, 12, 12, 12, 12, 12, 12, 12, 12, 12, 12, 12, 10, 10, 10, 10, 10, 11, 11, 10, 10, 10, 10, 10, 10, 10, 10, 10, 10, 11, 11, 10, 10, 10, 10, 10, 10, 10, 10, 7, 7, 7, 7, 7, 7, 7, 7, 7, 7, 7, 7, 7, 7, 7, 7, 7, 7, 7, 7, 7, 7, 7, 7, 7, 7, 7, 7, 7, 7, 7, 7, 7, 7, 7, 7, 7, 7, 7, 7, 7, 7, 7, 7, 7, 7, 7, 7, 7, 7, 7, 7, 7, 7, 7, 7, 7, 7, 7, 7, 7, 7, 7, 7, 7, 7, 7, 7, 7, 7, 7, 7, 7, 1, 1, 1, 1, 1, 1, 1, 1, 1, 1, 1, 1, 1, 1, 1, 1, 1, 1, 1, 1, 1, 1, 1, 1, 1, 1, 1, 1, 1, 1, 1, 1, 1, 1, 1, 1, 1, 1, 1, 1, 9, 9, 9, 9, 9, 9, 9, 9, 1, 1, 1, 1, 1, 1, 1, 1, 1, 1, 1, 1, 1, 1, 13, 13, 9, 9, 9, 9, 9, 9, 9, 9, 9, 9, 1, 9, 9, 1, 1, 1, 1, 13, 13, 13, 13, 13, 13, 13, 13, 13, 13, 13, 13, 13, 13, 13, 13, 13, 13, 13, 13, 13, 13, 13, 13, 13, 13, 13, 13, 13, 13, 13, 13, 13, 4, 4, 4, 4, 4, 4, 4, 4, 4, 4, 4, 4, 4, 4, 4, 4, 4, 4, 4, 4, 4, 4, 4, 4, 4, 4, 4, 4, 4, 4, 4, 4, 4, 4, 4, 4, 4, 4, 4, 4, 4, 4, 4, 4, 4, 4, 4, 4, 4, 4, 4, 4, 4, 4, 4, 4, 4, 4, 4, 4, 4, 4, 4, 4, 4, 4, 4, 4, 4, 4, 4, 4, 4, 4, 4, 4, 4, 4, 4, 4, 4, 4, 4, 4, 4, 4, 4, 4, 4, 4, 4, 4, 6, 6, 6, 6, 6, 6, 2, 2, 2, 6, 6, 6, 6, 6, 2, 2, 2, 6, 6, 6, 2, 2, 2, 2, 6, 6, 2, 2, 6, 6, 2, 2, 5, 5, 5, 6, 2, 2, 2, 2, 2, 2, 2, 2, 2, 6, 5, 5, 5, 5, 5, 5, 5, 5, 2, 6, 2, 2, 6, 2, 2, 2, 2, 2, 2, 2, 2, 2, 2, 2, 2, 2, 2, 2, 2, 2, 2, 2, 2, 2, 6, 5, 5, 5, 5, 5, 5, 2, 2, 2, 2, 2, 2, 2, 2, 5, 5, 5, 5, 5, 5, 5, 5, 5, 2, 2, 2, 2, 2, 2, 2, 2, 2, 5, 2, 2, 2, 2, 2, 2, 2, 2, 2, 2, 2, 2, 2, 2, 2, 2, 2, 2, 2, 2, 2, 2, 2, 2, 2, 5, 2, 2, 2, 2, 2, 2, 2, 2, 2, 2 ];